
GUB cover cuts applied:  5
Cover cuts applied:  2
Implied bound cuts applied:  10
Zero-half cuts applied:  6
Lift and project cuts applied:  2
Gomory fractional cuts applied:  5

Root node processing (before b&c):
  Real time             =    0.02 sec. (14.83 ticks)
Parallel b&c, 4 threads:
  Real time             =    0.00 sec. (0.00 ticks)
  Sync time (average)   =    0.00 sec.
  Wait time (average)   =    0.00 sec.
                          ------------
Total (root+branch&cut) =    0.02 sec. (14.83 ticks)
Version identifier: 12.10.0.0 | 2019-11-26 | 843d4de
CPXPARAM_MIP_Interval                            10
CPXPARAM_MIP_Tolerances_AbsMIPGap                0.98999999999999999
Tried aggregator 2 times.
MIP Presolve eliminated 1188 rows and 536 columns.
MIP Presolve added 4 rows and 0 columns.
MIP Presolve modified 80 coefficients.
Aggregator did 11 substitutions.
Reduced MIP has 487 rows, 100 columns, and 1110 nonzeros.
Reduced MIP has 77 binaries, 23 generals, 0 SOSs, and 0 indicators.
Presolve time = 0.00 sec. (2.79 ticks)
Found incumbent of value 4.000000 after 0.01 sec. (4.19 ticks)
Probing fixed 0 vars, tightened 4 bounds.
Probing time = 0.00 sec. (0.24 ticks)
Cover probing fixed 0 vars, tightened 12 bounds.
Tried aggregator 1 time.
Detecting symmetries...
MIP Presolve eliminated 300 rows and 0 columns.
MIP Presolve modified 20 coefficients.
Reduced MIP has 187 rows, 100 columns, and 510 nonzeros.
Reduced MIP has 77 binaries, 23 generals, 0 SOSs, and 0 indicators.
Presolve time = 0.00 sec. (0.60 ticks)
Probing fixed 0 vars, tightened 3 bounds.
Probing time = 0.00 sec. (0.11 ticks)
Cover probing fixed 0 vars, tightened 10 bounds.
Clique table members: 143.
MIP emphasis: balance optimality and feasibility.
MIP search method: dynamic search.
Parallel mode: deterministic, using up to 4 threads.
Root relaxation solution time = 0.00 sec. (0.60 ticks)

        Nodes                                         Cuts/
   Node  Left     Objective  IInf  Best Integer    Best Bound    ItCnt     Gap

*     0+    0                            4.0000       24.0000           500.00%
*     0+    0                           12.0000       24.0000           100.00%
      0     0       15.3333    24       12.0000       15.3333       91   27.78%
      0     0       15.3333    24       12.0000       Cuts: 5      111   27.78%
      0     0       15.2374    24       12.0000      Cuts: 22      146   26.98%
      0     0       15.1333    24       12.0000      Cuts: 43      186   26.11%
      0     0       15.0905    24       12.0000      Cuts: 42      215   25.75%
      0     0       15.0333    24       12.0000      Cuts: 22      239   25.28%
Detecting symmetries...
      0     0       15.0333    24       12.0000      Cuts: 31      263   25.28%
      0     0       14.9000    24       12.0000       Cuts: 8      280   24.17%
      0     0       14.9000    24       12.0000      Cuts: 43      305   24.17%
*     0+    0                           14.0000       14.9000             6.43%
      0     0        cutoff             14.0000       14.0000      305    0.00%
Elapsed time = 0.03 sec. (22.95 ticks, tree = 0.01 MB, solutions = 3)
the number of Nodes = 0
